files/upTests/_functions/simpleMultiFunc/0001.eprime.solution
language ESSENCE' 1.0
$ minion Nodes: 1
$ minion TotalTime: 0.000734
$ Savile Row TotalTime: 0.343
letting y_tuple1_tuple3 be [33, 55;int(1..2)]
letting y_tuple1_tuple2_Matrix1D_Occurrence be [[[1, 1;int(1..2)], 
[1, 0;int(1..2)], 
[0, 0;int(1..2)];int(1..3)], 
[[1, 1;int(1..2)], 
[1, 0;int(1..2)], 
[0, 0;int(1..2)];int(1..3)];int(1..2)]
letting y_tuple1_tuple1 be [10, 11;int(1..2)]
